NAME : custom
COMMENT : custom_small
TYPE : TSP
DIMENSION: 10
EDGE_WEIGHT_TYPE: EUC_2D
NODE_COORD_SECTION
  1 627 265
  2 335 210
  3 622 474
  4 251 51
  5 266 251
  6 357 391
  7 495 455
  8 566 219
  9 172 80
 10 264 193
EOF
